%chk=benzophenone_sp.chk
%mem=8GB
%nprocshared=8
# wb97xd/def2tzvp scrf=(smd,solvent=methanol) nosymm

Benzophenone single-point example in methanol

0 1
O     1.219556    0.000000    0.000000
C     0.000000    0.000000    0.000000
C    -0.751025   -1.299197    0.000014
C    -0.114202   -2.423696    0.551451
C    -0.741117   -3.667822    0.538853
C    -2.002803   -3.809692   -0.050445
C    -2.632043   -2.703113   -0.626761
C    -2.013120   -1.451335   -0.597387
C    -0.751026    1.299197    0.000014
C    -2.013111    1.451328    0.597437
C    -2.632033    2.703104    0.626834
C    -2.002805    3.809690    0.050518
C    -0.741129    3.667827   -0.538803
C    -0.114213    2.423702   -0.551424
H     0.879428   -2.295363    0.984322
H    -0.244530   -4.533666    0.983178
H    -2.492502   -4.786437   -0.066512
H    -3.607980   -2.815280   -1.104845
H    -2.502053   -0.595059   -1.064185
H    -2.502034    0.595047    1.064235
H    -3.607964    2.815266    1.104935
H    -2.492502    4.786435    0.066603
H    -0.244549    4.533675   -0.983128
H     0.879411    2.295373   -0.984313
